language Essence 1.3

letting course_load be
        function(1 --> 9, 2 --> 4, 3 --> 10, 4 --> 2, 5 --> 7, 6 --> 9, 7 --> 10, 8 --> 8, 9 --> 2, 10 --> 7, 11 --> 10,
                 12 --> 7, 13 --> 4, 14 --> 10, 15 --> 4, 16 --> 4, 17 --> 3, 18 --> 3, 19 --> 10, 20 --> 10, 21 --> 10,
                 22 --> 3, 23 --> 5, 24 --> 10, 25 --> 10, 26 --> 2, 27 --> 10, 28 --> 3, 29 --> 3, 30 --> 3, 31 --> 3,
                 32 --> 3, 33 --> 3, 34 --> 10, 35 --> 9, 36 --> 2, 37 --> 2, 38 --> 8, 39 --> 8)
letting courses_per_period_lb be 1
letting courses_per_period_ub be 38
letting load_per_period_lb be 1
letting load_per_period_ub be 48
letting n_courses be 39
letting n_periods be 30
letting prerequisite be
        relation((37, 19), (37, 20), (37, 22), (37, 23), (38, 20), (38, 22), (38, 23), (39, 19), (39, 20), (39, 22))
$ Visualisation for prerequisite
$ 37 19
$ 37 20
$ 37 22
$ 37 23
$ 38 20
$ 38 22
$ 38 23
$ 39 19
$ 39 20
$ 39 22

